p tw 37 39
1 2
2 13
3 4
4 5
5 6
6 7
7 8
7 16
8 9
9 10
10 11
11 12
12 14
13 24
14 15
15 21
16 17
17 18
18 19
19 20
20 21
21 22
22 23
23 25
23 27
24 32
25 26
26 30
27 28
28 29
29 30
30 31
32 33
33 34
34 35
35 36
36 37
37 3
37 25
